15
-1 160 343 406 415 292 44 416 278 101 207 448 240 164 334 
160 -1 192 354 280 278 148 269 202 153 293 490 180 110 291 
343 192 -1 456 268 293 317 227 317 344 403 519 198 281 412 
406 354 456 -1 243 632 433 291 152 305 608 835 534 258 71 
415 280 268 243 -1 526 419 51 182 347 573 752 420 259 237 
292 278 293 632 526 -1 248 497 480 373 177 228 105 378 567 
44 148 317 433 419 248 -1 414 297 136 174 410 198 181 362 
416 269 227 291 51 497 414 -1 212 358 559 725 392 270 278 
278 202 317 152 182 480 297 212 -1 187 470 687 382 115 95 
101 153 344 305 347 373 136 358 187 -1 308 546 300 88 234 
207 293 403 608 573 177 174 559 470 308 -1 247 214 354 537 
448 490 519 835 752 228 410 725 687 546 247 -1 332 577 766 
240 180 198 534 420 105 198 392 382 300 214 332 -1 288 472 
164 110 281 258 259 378 181 270 115 88 354 577 288 -1 189 
334 291 412 71 237 567 362 278 95 234 537 766 472 189 -1 
